NAME : O2.4565912.tour
COMMENT : Cost = 0_4565912
COMMENT : Found by LKH [Keld Helsgaun] Mon Dec 18 12:59:55 2017
TYPE : TOUR
DIMENSION : 249
TOUR_SECTION
1
2
3
4
5
6
7
8
9
10
11
12
13
14
248
23
24
25
65
64
63
103
104
105
106
146
145
144
184
185
186
187
188
189
190
191
192
232
231
230
229
228
227
226
243
18
19
59
99
100
140
139
138
137
136
135
175
215
214
213
212
211
210
209
208
207
206
205
204
203
246
17
57
58
98
97
96
95
94
93
133
134
174
173
172
171
170
169
168
167
166
165
164
163
162
161
200
240
201
202
247
26
66
67
107
147
148
149
150
151
152
153
193
194
195
196
197
198
199
239
238
237
236
235
234
233
241
27
28
68
108
109
110
111
112
113
114
115
116
117
118
119
120
81
82
83
84
85
86
87
88
89
90
91
245
22
21
20
60
61
62
102
101
141
142
143
183
182
181
180
179
178
177
176
216
217
218
219
220
221
222
223
224
225
244
29
69
70
71
72
73
74
75
76
77
78
79
80
41
42
43
44
45
46
47
48
49
50
51
242
15
16
56
55
54
53
52
92
132
131
130
129
128
127
126
125
124
123
122
121
160
159
158
157
156
155
154
249
30
31
32
33
34
35
36
37
38
39
40
-1
EOF
